100 4188
797 310 702 514 600 904 469 504 922 561 531 677 267 569 989 927 867 1094 252 806 449 679 317 855 1058 195 726 446 770 719 782 408 835 1094 1098 198 511 178 528 285 555 369 465 179 818 524 536 668 458 377 194 994 560 1064 817 571 611 162 1009 572 239 469 149 252 337 484 655 403 602 995 819 457 426 273 326 731 402 726 368 895 901 148 499 929 140 617 143 223 405 930 588 279 439 148 435 112 1061 364 730 1005 
697 210 602 414 500 804 369 404 822 461 431 577 167 469 889 827 767 994 152 706 349 579 217 755 958 95 626 346 670 619 682 308 735 994 998 98 411 78 428 185 455 269 365 79 718 424 436 568 358 277 94 894 460 964 717 471 511 62 909 472 139 369 49 152 237 384 555 303 502 895 719 357 326 173 226 631 302 626 268 795 801 48 399 829 40 517 43 123 305 830 488 179 339 48 335 12 961 264 630 905 
